94 169 141 151 36 152 110 95 88 66 135 57 113 155 185 167 31 85 97 178 120 172 196 108 96 8 118 181 129 63 29 72 176 166 24 177 65 102 111 90 179 165 117 112 10 186 21 125 180 30 14 156 18 78 182 116 101 122 87 26 107 37 2 115 15 121 103 127 184 114 1 189 70 20 119 4 106 49 124 23 159 130 138 109 157 163 45 134 98 48 104 194 27 145 197 59 161 28 162 3 40 52 25 144 164 147 199 50 84 123 19 195 188 154 89 76 140 92 192 82 39 171 68 46 137 93 35 73 54 77 33 71 64 79 56 158 198 51 86 146 136 191 7 128 61 38 131 170 148 74 105 150 12 42 67 0 17 139 83 44 99 153 16 60 34 47 190 32 55 168 132 173 126 69 43 41 143 149 81 53 75 62 100 160 58 133 9 22 11 175 142 174 187 13 183 91 5 6 80 193 

